SLURM_JOB_ID: 55290671
SLURM_JOB_USER: vsc34888
SLURM_JOB_ACCOUNT: lp_elect_gen_modeling
SLURM_JOB_NAME: RTS24_full_MILP_DC
SLURM_CLUSTER_NAME: genius
SLURM_JOB_PARTITION: batch
SLURM_NNODES: 1
SLURM_NODELIST: r22i13n10
SLURM_JOB_CPUS_PER_NODE: 36
Date: Mon Oct  9 10:40:40 CEST 2023
Walltime: 02-00:00:00
========================================================================
Activation OK
Starting runs

 #### Academic research license - for non-commercial use only #### 

RTS24
/lustre1/scratch/348/vsc34888/JointResearch/05.Models/06.Benchmarking/A.The_full_year_MILP
gurobi
['oSN_Main_DCOPF.py', '--case', 'RTS24']
Namespace(case='RTS24', dir='/lustre1/scratch/348/vsc34888/JointResearch/05.Models/06.Benchmarking/A.The_full_year_MILP', solver='gurobi')
Namespace(case='RTS24', dir='/lustre1/scratch/348/vsc34888/JointResearch/05.Models/06.Benchmarking/A.The_full_year_MILP', solver='gurobi')
Reading    input data                 ...  0 s
Setting up input data                 ...  12 s
Generating objective function         ...  11 s
Generating operation & investment     ...  0 s
Generating balance                    ...  29 s
Generating storage operation          ...  0 s
Generating generation commitment      ...  16 s
Generating generation capacity        ...  4 s
Generating network    capacity        ...  22 s
Generating network    constraints     ...  49 s
Econometric analysis  constraints     ...  0 s
Set parameter Username
Set parameter TokenServer to value "SET-S-ME-LM3.luna.kuleuven.be"
Read LP format model from file /tmp/tmpdzg7kqew.pyomo.lp
Reading time = 10.79 seconds
x1: 3887523 rows, 2254155 columns, 10667124 nonzeros
Set parameter QCPDual to value 1
Set parameter LogFile to value "/lustre1/scratch/348/vsc34888/JointResearch/05.Models/06.Benchmarking/A.The_full_year_MILP/RTS24/openStarNet_RTS24.log"
Set parameter Method to value 2
Set parameter MIPFocus to value 1
Set parameter Presolve to value 2
Set parameter RINS to value 100
Set parameter MIPGap to value 0.01
Set parameter Threads to value 36
Set parameter TimeLimit to value 604800
Set parameter IterationLimit to value 760000000
Gurobi Optimizer version 9.5.0 build v9.5.0rc5 (linux64)
Thread count: 36 physical cores, 36 logical processors, using up to 36 threads
Optimize a model with 3887523 rows, 2254155 columns and 10667124 nonzeros
Model fingerprint: 0xc33e653d
Variable types: 2254116 continuous, 39 integer (39 binary)
Coefficient statistics:
  Matrix range     [2e-04, 3e+02]
  Objective range  [1e+00, 1e+00]
  Bounds range     [4e-04, 3e+00]
  RHS range        [4e-04, 3e+00]
Presolve removed 1354107 rows and 339479 columns (presolve time = 5s) ...
Presolve removed 1808355 rows and 793727 columns (presolve time = 10s) ...
Presolve removed 1808355 rows and 793727 columns (presolve time = 15s) ...
Presolve removed 1903239 rows and 973167 columns (presolve time = 21s) ...
Presolve removed 1903239 rows and 973167 columns (presolve time = 25s) ...
Presolve removed 1903239 rows and 973167 columns (presolve time = 30s) ...
Presolve removed 1903239 rows and 973167 columns
Presolve time: 34.19s
Presolved: 1984284 rows, 1280988 columns, 6911790 nonzeros
Variable types: 1280949 continuous, 39 integer (39 binary)
Root relaxation presolve removed 0 rows and 0 columns (presolve time = 6s) ...
Root relaxation presolved: 1984284 rows, 1280988 columns, 6911790 nonzeros

Root barrier log...

Ordering time: 0.66s

Barrier statistics:
 Dense cols : 39
 AA' NZ     : 1.468e+07
 Factor NZ  : 5.040e+07 (roughly 1.7 GB of memory)
 Factor Ops : 1.690e+09 (less than 1 second per iteration)
 Threads    : 35

                  Objective                Residual
Iter       Primal          Dual         Primal    Dual     Compl     Time
   0   6.58338627e+05 -4.96966057e+07  4.69e+00 1.37e+00  3.65e+01    58s
   1   8.76738272e+04 -1.38019442e+07  4.78e-01 2.69e-08  4.87e+00    59s
   2   2.78336826e+04 -1.73730523e+06  1.77e-02 3.28e-09  4.51e-01    60s
   3   1.34687463e+04 -1.75693739e+05  4.58e-04 3.12e-10  4.68e-02    62s
   4   3.23401921e+03 -2.20686031e+04  9.04e-05 3.03e-11  6.26e-03    63s
   5   9.71163481e+02 -5.48970256e+03  1.78e-05 8.12e-12  1.60e-03    64s
   6   5.82070082e+02 -1.64906287e+03  7.51e-06 2.81e-12  5.52e-04    65s
   7   3.98325534e+02 -8.23386909e+02  4.20e-06 1.29e-12  3.02e-04    66s
   8   2.64160147e+02 -2.79102723e+02  2.11e-06 4.48e-13  1.34e-04    67s
   9   1.81713334e+02 -6.75088592e+01  1.04e-06 5.04e-13  6.17e-05    68s
  10   1.29741695e+02  2.85575273e+01  4.45e-07 3.13e-13  2.50e-05    69s
  11   1.14907719e+02  6.82587171e+01  3.06e-07 4.39e-13  1.15e-05    70s
  12   1.02627610e+02  7.08661150e+01  1.77e-07 4.23e-13  7.86e-06    72s
  13   9.83578111e+01  7.43149465e+01  1.31e-07 3.55e-13  5.95e-06    72s
  14   9.51339627e+01  7.89816344e+01  9.62e-08 2.10e-13  4.00e-06    73s
  15   9.38946187e+01  7.99292934e+01  8.26e-08 3.39e-13  3.46e-06    74s
  16   9.20244213e+01  8.25333221e+01  6.31e-08 2.42e-13  2.35e-06    75s
  17   9.07979293e+01  8.32443734e+01  5.06e-08 1.74e-13  1.87e-06    77s
  18   8.97419938e+01  8.40264462e+01  4.03e-08 3.55e-13  1.41e-06    79s
  19   8.86876013e+01  8.44190785e+01  2.96e-08 1.92e-13  1.06e-06    81s
  20   8.81928540e+01  8.49105850e+01  2.42e-08 2.31e-13  8.12e-07    83s
  21   8.76231531e+01  8.50986611e+01  1.80e-08 2.84e-13  6.25e-07    84s
  22   8.73480597e+01  8.53648401e+01  1.52e-08 5.83e-13  4.91e-07    86s
  23   8.70707915e+01  8.55459780e+01  1.22e-08 2.77e-13  3.77e-07    88s
  24   8.68344096e+01  8.57275074e+01  9.37e-09 8.95e-13  2.74e-07    90s
  25   8.66305302e+01  8.57971905e+01  6.94e-09 3.62e-13  2.06e-07    92s
  26   8.64900895e+01  8.58625821e+01  5.12e-09 1.17e-12  1.55e-07    94s
  27   8.63974463e+01  8.59132194e+01  3.86e-09 5.61e-13  1.20e-07    96s
  28   8.63024694e+01  8.59463535e+01  2.55e-09 8.81e-13  8.81e-08    98s
  29   8.62654843e+01  8.59883618e+01  2.08e-09 1.71e-13  6.86e-08    99s
  30   8.62314020e+01  8.60166961e+01  1.64e-09 5.90e-13  5.31e-08   101s
  31   8.61994880e+01  8.60384955e+01  1.27e-09 3.20e-13  3.98e-08   103s
  32   8.61816998e+01  8.60494235e+01  1.00e-09 2.34e-13  3.27e-08   105s
  33   8.61639163e+01  8.60668833e+01  7.29e-10 1.10e-13  2.40e-08   107s
  34   8.61502927e+01  8.60804699e+01  7.28e-10 1.21e-13  1.73e-08   109s
  35   8.61422282e+01  8.60886086e+01  5.23e-10 1.14e-13  1.33e-08   112s
  36   8.61364076e+01  8.60949243e+01  3.81e-10 1.24e-13  1.03e-08   114s
  37   8.61328535e+01  8.60991796e+01  2.90e-10 2.70e-13  8.33e-09   116s
  38   8.61267913e+01  8.61016931e+01  2.94e-10 1.88e-13  6.21e-09   118s
  39   8.61254774e+01  8.61031344e+01  2.58e-10 1.92e-13  5.53e-09   120s
  40   8.61226483e+01  8.61096644e+01  3.14e-10 1.30e-13  3.21e-09   122s
  41   8.61223174e+01  8.61105215e+01  2.86e-10 7.46e-14  2.92e-09   124s
  42   8.61222620e+01  8.61111960e+01  2.70e-10 2.34e-13  2.74e-09   126s
  43   8.61221162e+01  8.61126843e+01  2.27e-10 4.05e-13  2.33e-09   127s
  44   8.61220420e+01  8.61129942e+01  2.13e-10 1.56e-13  2.24e-09   129s
  45   8.61219549e+01  8.61164801e+01  1.86e-10 2.42e-13  1.35e-09   131s
  46   8.61218530e+01  8.61172345e+01  1.52e-10 4.62e-13  1.14e-09   133s
  47   8.61218156e+01  8.61175395e+01  1.42e-10 1.85e-13  1.06e-09   135s
  48   8.61217648e+01  8.61177104e+01  1.28e-10 1.07e-13  1.00e-09   137s
  49   8.61216002e+01  8.61186972e+01  8.05e-11 1.46e-13  7.18e-10   139s
  50   8.61214353e+01  8.61203761e+01  6.41e-11 1.99e-13  2.62e-10   141s
  51   8.61212916e+01  8.61207749e+01  4.45e-10 3.41e-13  1.28e-10   143s
  52   8.61212896e+01  8.61212577e+01  1.00e-08 7.34e-13  7.89e-12   145s
  53   8.61212892e+01  8.61212683e+01  7.76e-09 6.22e-13  5.18e-12   146s
  54   8.61212885e+01  8.61212879e+01  6.97e-09 5.21e-13  1.31e-13   147s

Barrier solved model in 54 iterations and 147.50 seconds (100.74 work units)
Optimal objective 8.61212885e+01


Root crossover log...

  282705 DPushes remaining with DInf 3.6890687e-01               149s
   61088 DPushes remaining with DInf 8.3445919e-02               150s
   60816 DPushes remaining with DInf 8.3445919e-02               156s
   60586 DPushes remaining with DInf 8.3445919e-02               162s
   60356 DPushes remaining with DInf 8.3445919e-02               168s
   60126 DPushes remaining with DInf 8.3445919e-02               173s
   59896 DPushes remaining with DInf 8.3445919e-02               179s
   59666 DPushes remaining with DInf 8.3445919e-02               184s
   59436 DPushes remaining with DInf 8.3445919e-02               190s
   59206 DPushes remaining with DInf 8.3445919e-02               195s
   58976 DPushes remaining with DInf 8.3445919e-02               201s
   58746 DPushes remaining with DInf 8.3445919e-02               207s
   58516 DPushes remaining with DInf 8.3445919e-02               212s
   58286 DPushes remaining with DInf 8.3445919e-02               218s
   58056 DPushes remaining with DInf 8.3445919e-02               223s
   57826 DPushes remaining with DInf 8.3445919e-02               229s
   57596 DPushes remaining with DInf 8.3445919e-02               234s
   57366 DPushes remaining with DInf 8.3445919e-02               240s
   57136 DPushes remaining with DInf 8.3445919e-02               245s
   56906 DPushes remaining with DInf 8.3445919e-02               251s
   56676 DPushes remaining with DInf 8.3445919e-02               257s
   56446 DPushes remaining with DInf 8.3445919e-02               262s
   56216 DPushes remaining with DInf 8.3445919e-02               268s
   55986 DPushes remaining with DInf 8.3445919e-02               273s
   55756 DPushes remaining with DInf 8.3445919e-02               279s
   55526 DPushes remaining with DInf 8.3445919e-02               284s
   55296 DPushes remaining with DInf 8.3445919e-02               290s
   55066 DPushes remaining with DInf 8.3445919e-02               295s
   54836 DPushes remaining with DInf 8.3445919e-02               301s
   54606 DPushes remaining with DInf 8.3445919e-02               306s
   54376 DPushes remaining with DInf 8.3445919e-02               312s
   54146 DPushes remaining with DInf 8.3445919e-02               317s
   53916 DPushes remaining with DInf 8.3445919e-02               323s
   53676 DPushes remaining with DInf 8.3445919e-02               328s
   53436 DPushes remaining with DInf 8.3445919e-02               334s
   53206 DPushes remaining with DInf 8.3445919e-02               339s
   52936 DPushes remaining with DInf 8.3445919e-02               345s
   52666 DPushes remaining with DInf 8.3445919e-02               351s
   52396 DPushes remaining with DInf 8.3445919e-02               356s
   52126 DPushes remaining with DInf 8.3445919e-02               362s
   51856 DPushes remaining with DInf 8.3445919e-02               368s
   51586 DPushes remaining with DInf 8.3445919e-02               374s
   51316 DPushes remaining with DInf 8.3445919e-02               379s
   51046 DPushes remaining with DInf 8.3445919e-02               385s
   50776 DPushes remaining with DInf 8.3445919e-02               391s
   50506 DPushes remaining with DInf 8.3445919e-02               396s
   50236 DPushes remaining with DInf 8.3445919e-02               402s
   49966 DPushes remaining with DInf 8.3445919e-02               408s
   49696 DPushes remaining with DInf 8.3445919e-02               413s
   49426 DPushes remaining with DInf 8.3445919e-02               419s
   49156 DPushes remaining with DInf 8.3445919e-02               425s
   48886 DPushes remaining with DInf 8.3445919e-02               430s
   48616 DPushes remaining with DInf 8.3445919e-02               436s
   48346 DPushes remaining with DInf 8.3445919e-02               442s
   48076 DPushes remaining with DInf 8.3445919e-02               447s
   47806 DPushes remaining with DInf 8.3445919e-02               453s
   47536 DPushes remaining with DInf 8.3445919e-02               459s
   47266 DPushes remaining with DInf 8.3445919e-02               464s
   46996 DPushes remaining with DInf 8.3445919e-02               470s
   46726 DPushes remaining with DInf 8.3445919e-02               476s
   46456 DPushes remaining with DInf 8.3445919e-02               481s
   46186 DPushes remaining with DInf 8.3445919e-02               487s
   45916 DPushes remaining with DInf 8.3445919e-02               493s
   45646 DPushes remaining with DInf 8.3445919e-02               498s
   45376 DPushes remaining with DInf 8.3445919e-02               504s
   45036 DPushes remaining with DInf 8.3445919e-02               510s
   44646 DPushes remaining with DInf 8.3445919e-02               517s
   44256 DPushes remaining with DInf 8.3445919e-02               523s
   43866 DPushes remaining with DInf 8.3445919e-02               530s
   43476 DPushes remaining with DInf 8.3445919e-02               536s
   43086 DPushes remaining with DInf 8.3445919e-02               543s
   42696 DPushes remaining with DInf 8.3445919e-02               549s
   42306 DPushes remaining with DInf 8.3445919e-02               556s
   41916 DPushes remaining with DInf 8.3445919e-02               562s
   41526 DPushes remaining with DInf 8.3445919e-02               569s
   41136 DPushes remaining with DInf 8.3445919e-02               576s
   40746 DPushes remaining with DInf 8.3445919e-02               582s
   40356 DPushes remaining with DInf 8.3445919e-02               589s
   39966 DPushes remaining with DInf 8.3445919e-02               595s
   39576 DPushes remaining with DInf 8.3445919e-02               602s
   39186 DPushes remaining with DInf 8.3445919e-02               608s
   38796 DPushes remaining with DInf 8.3445919e-02               615s
   38406 DPushes remaining with DInf 8.3445919e-02               622s
   38016 DPushes remaining with DInf 8.3445919e-02               628s
   37626 DPushes remaining with DInf 8.3445919e-02               635s
   37286 DPushes remaining with DInf 8.3445919e-02               641s
   36946 DPushes remaining with DInf 8.3445919e-02               647s
   36606 DPushes remaining with DInf 8.3445919e-02               654s
   36266 DPushes remaining with DInf 8.3445919e-02               660s
   35926 DPushes remaining with DInf 8.3445919e-02               667s
   35586 DPushes remaining with DInf 8.3445919e-02               673s
   35246 DPushes remaining with DInf 8.3445919e-02               679s
   34906 DPushes remaining with DInf 8.3445919e-02               686s
   34566 DPushes remaining with DInf 8.3445919e-02               692s
   34226 DPushes remaining with DInf 8.3445919e-02               699s
   33886 DPushes remaining with DInf 8.3445919e-02               705s
   33546 DPushes remaining with DInf 8.3445919e-02               712s
   33206 DPushes remaining with DInf 8.3445919e-02               718s
   32866 DPushes remaining with DInf 8.3445919e-02               725s
   32526 DPushes remaining with DInf 8.3445919e-02               731s
   32186 DPushes remaining with DInf 8.3445919e-02               738s
   31846 DPushes remaining with DInf 8.3445919e-02               744s
   31506 DPushes remaining with DInf 8.3445919e-02               750s
   31166 DPushes remaining with DInf 8.3445919e-02               757s
   30826 DPushes remaining with DInf 8.3445919e-02               763s
   30486 DPushes remaining with DInf 8.3445919e-02               770s
   30146 DPushes remaining with DInf 8.3445919e-02               776s
   29806 DPushes remaining with DInf 8.3445919e-02               783s
   29476 DPushes remaining with DInf 8.3445919e-02               789s
   29156 DPushes remaining with DInf 8.3445919e-02               795s
   28926 DPushes remaining with DInf 8.3445919e-02               800s
   28696 DPushes remaining with DInf 8.3445919e-02               805s
   28466 DPushes remaining with DInf 8.3445919e-02               810s
   28236 DPushes remaining with DInf 8.3445919e-02               815s
   28006 DPushes remaining with DInf 8.3445919e-02               821s
   27776 DPushes remaining with DInf 8.3445919e-02               826s
   27546 DPushes remaining with DInf 8.3445919e-02               831s
   27316 DPushes remaining with DInf 8.3445919e-02               836s
   27076 DPushes remaining with DInf 8.3445919e-02               842s
   26846 DPushes remaining with DInf 8.3445919e-02               847s
   26606 DPushes remaining with DInf 8.3445919e-02               852s
   26376 DPushes remaining with DInf 8.3445919e-02               857s
   26136 DPushes remaining with DInf 8.3445919e-02               863s
   25906 DPushes remaining with DInf 8.3445919e-02               868s
   25666 DPushes remaining with DInf 8.3445919e-02               873s
   25436 DPushes remaining with DInf 8.3445919e-02               879s
   25196 DPushes remaining with DInf 8.3445919e-02               884s
   24966 DPushes remaining with DInf 8.3445919e-02               889s
   24726 DPushes remaining with DInf 8.3445919e-02               895s
   24496 DPushes remaining with DInf 8.3445919e-02               900s
   24256 DPushes remaining with DInf 8.3445919e-02               905s
   24026 DPushes remaining with DInf 8.3445919e-02               910s
   23796 DPushes remaining with DInf 8.3445919e-02               916s
   23566 DPushes remaining with DInf 8.3445919e-02               921s
   23336 DPushes remaining with DInf 8.3445919e-02               926s
   23106 DPushes remaining with DInf 8.3445919e-02               931s
   22876 DPushes remaining with DInf 8.3445919e-02               936s
   22646 DPushes remaining with DInf 8.3445919e-02               942s
   22406 DPushes remaining with DInf 8.3027539e-02               947s
   22176 DPushes remaining with DInf 8.3027539e-02               952s
   21946 DPushes remaining with DInf 8.3027539e-02               957s
   21716 DPushes remaining with DInf 8.3027539e-02               963s
   21486 DPushes remaining with DInf 8.3027539e-02               968s
   21256 DPushes remaining with DInf 8.3027539e-02               973s
   20976 DPushes remaining with DInf 8.3027539e-02               979s
   20696 DPushes remaining with DInf 8.3027539e-02               984s
   20406 DPushes remaining with DInf 8.2343587e-02               990s
   20086 DPushes remaining with DInf 8.1427837e-02               996s
   19756 DPushes remaining with DInf 8.1427837e-02              1002s
   19436 DPushes remaining with DInf 8.1427837e-02              1008s
   19086 DPushes remaining with DInf 8.1427837e-02              1014s
   18736 DPushes remaining with DInf 8.1427837e-02              1020s
   18386 DPushes remaining with DInf 8.1427837e-02              1026s
   18036 DPushes remaining with DInf 8.1427837e-02              1032s
   17686 DPushes remaining with DInf 8.1427837e-02              1038s
   17336 DPushes remaining with DInf 8.1427837e-02              1044s
   16986 DPushes remaining with DInf 8.1427837e-02              1050s
   16636 DPushes remaining with DInf 8.1427837e-02              1056s
   16286 DPushes remaining with DInf 8.1427837e-02              1062s
   15936 DPushes remaining with DInf 8.1427837e-02              1068s
   15586 DPushes remaining with DInf 8.1427837e-02              1074s
   15236 DPushes remaining with DInf 8.1427837e-02              1080s
   14886 DPushes remaining with DInf 8.1427837e-02              1086s
   14536 DPushes remaining with DInf 8.1427837e-02              1092s
   14186 DPushes remaining with DInf 8.1427837e-02              1098s
   13836 DPushes remaining with DInf 8.1427837e-02              1104s
   13486 DPushes remaining with DInf 8.1427837e-02              1110s
   13136 DPushes remaining with DInf 8.1427837e-02              1116s
   12786 DPushes remaining with DInf 8.1427837e-02              1122s
   12446 DPushes remaining with DInf 8.1427837e-02              1128s
   12096 DPushes remaining with DInf 8.1427837e-02              1134s
   11756 DPushes remaining with DInf 8.0644863e-02              1140s
   11516 DPushes remaining with DInf 8.0480916e-02              1145s
   11256 DPushes remaining with DInf 8.0480916e-02              1150s
   10996 DPushes remaining with DInf 7.8569110e-02              1156s
   10726 DPushes remaining with DInf 7.8569110e-02              1162s
   10456 DPushes remaining with DInf 7.8569110e-02              1167s
   10186 DPushes remaining with DInf 7.8569110e-02              1173s
    9916 DPushes remaining with DInf 7.8569110e-02              1179s
    9646 DPushes remaining with DInf 7.8569110e-02              1185s
    9376 DPushes remaining with DInf 7.8569110e-02              1190s
    9106 DPushes remaining with DInf 7.8569110e-02              1196s
    8836 DPushes remaining with DInf 7.8569110e-02              1202s
    8566 DPushes remaining with DInf 7.8569110e-02              1208s
    8296 DPushes remaining with DInf 7.8569110e-02              1213s
    8026 DPushes remaining with DInf 7.8569110e-02              1219s
    7756 DPushes remaining with DInf 7.8569110e-02              1225s
    7486 DPushes remaining with DInf 7.8569110e-02              1231s
    7216 DPushes remaining with DInf 7.8569110e-02              1236s
    6946 DPushes remaining with DInf 7.8569110e-02              1242s
    6676 DPushes remaining with DInf 7.8569110e-02              1248s
    6406 DPushes remaining with DInf 7.8569110e-02              1253s
    6136 DPushes remaining with DInf 7.8569110e-02              1259s
    5866 DPushes remaining with DInf 7.8569110e-02              1265s
    5596 DPushes remaining with DInf 7.8569110e-02              1270s
    5326 DPushes remaining with DInf 7.8569110e-02              1276s
    5056 DPushes remaining with DInf 7.8569110e-02              1282s
    4786 DPushes remaining with DInf 7.8569110e-02              1288s
    4516 DPushes remaining with DInf 7.8569110e-02              1293s
    4246 DPushes remaining with DInf 7.8551272e-02              1299s
    3976 DPushes remaining with DInf 7.8551272e-02              1305s
    3706 DPushes remaining with DInf 7.8551272e-02              1311s
    3436 DPushes remaining with DInf 7.8551272e-02              1316s
    3166 DPushes remaining with DInf 7.8551272e-02              1322s
    2896 DPushes remaining with DInf 7.8551272e-02              1328s
    2626 DPushes remaining with DInf 7.8551272e-02              1334s
    2356 DPushes remaining with DInf 7.8551272e-02              1339s
    2086 DPushes remaining with DInf 7.3797177e-02              1345s
    1806 DPushes remaining with DInf 7.1352493e-02              1351s
    1556 DPushes remaining with DInf 7.1352493e-02              1356s
    1286 DPushes remaining with DInf 7.1352493e-02              1362s
    1016 DPushes remaining with DInf 7.1352493e-02              1367s
     726 DPushes remaining with DInf 7.1352493e-02              1373s
     226 DPushes remaining with DInf 5.0654931e-02              1379s
       0 DPushes remaining with DInf 5.0654931e-02              1383s

  191590 PPushes remaining with PInf 7.3426360e-05              1383s
  117527 PPushes remaining with PInf 7.3426360e-05              1386s
   80283 PPushes remaining with PInf 7.3426329e-05              1391s
   50773 PPushes remaining with PInf 7.3426329e-05              1396s
   35946 PPushes remaining with PInf 7.3426329e-05              1400s
   17724 PPushes remaining with PInf 7.3426329e-05              1408s
   11818 PPushes remaining with PInf 7.3431371e-05              1412s
    2736 PPushes remaining with PInf 7.3431371e-05              1418s
    1135 PPushes remaining with PInf 7.3431371e-05              1422s
       0 PPushes remaining with PInf 0.0000000e+00              1429s

  Push phase complete: Pinf 0.0000000e+00, Dinf 3.9366725e-01   1429s


Root simplex log...

Iteration    Objective       Primal Inf.    Dual Inf.      Time
  260644    8.6121288e+01   0.000000e+00   3.936672e-01   1433s
  260984    8.6121288e+01   0.000000e+00   8.944532e-02   1448s
  261344    8.6121288e+01   0.000000e+00   5.929516e-02   1464s
  261907    8.6121288e+01   0.000000e+00   0.000000e+00   1471s
  261907    8.6121288e+01   0.000000e+00   0.000000e+00   1476s

Root relaxation: objective 8.612129e+01, 261907 iterations, 1432.19 seconds (2644.37 work units)
Total elapsed time = 1585.56s

    Nodes    |    Current Node    |     Objective Bounds      |     Work
 Expl Unexpl |  Obj  Depth IntInf | Incumbent    BestBd   Gap | It/Node Time

     0     0   86.12129    0   13          -   86.12129      -     - 1591s
H    0     0                     119.5758931   86.12129  28.0%     - 2051s
     0     0   88.03446    0   12  119.57589   88.03446  26.4%     - 7594s
H    0     0                     102.8732001   88.03446  14.4%     - 7970s
     0     0   88.03568    0   12  102.87320   88.03568  14.4%     - 8030s
     0     0   88.03570    0   12  102.87320   88.03570  14.4%     - 8048s
     0     0   89.10157    0   10  102.87320   89.10157  13.4%     - 10990s
     0     0   89.10190    0   10  102.87320   89.10190  13.4%     - 11252s
     0     0   89.10190    0   10  102.87320   89.10190  13.4%     - 11263s
     0     0   89.27468    0   10  102.87320   89.27468  13.2%     - 12275s
     0     0   89.28735    0   12  102.87320   89.28735  13.2%     - 13028s
     0     0   89.28777    0   11  102.87320   89.28777  13.2%     - 13127s
     0     0   89.28786    0   11  102.87320   89.28786  13.2%     - 13180s
     0     0   89.34462    0   11  102.87320   89.34462  13.2%     - 14171s
     0     0   89.36748    0   10  102.87320   89.36748  13.1%     - 14634s
     0     0   89.36814    0   11  102.87320   89.36814  13.1%     - 14744s
     0     0   89.36826    0   11  102.87320   89.36826  13.1%     - 14786s
     0     0   89.37582    0   11  102.87320   89.37582  13.1%     - 17309s
H    0     0                     102.1415269   89.37582  12.5%     - 21730s
H    0     0                      97.4309703   89.37582  8.27%     - 56879s
     0     2   89.37582    0   11   97.43097   89.37582  8.27%     - 56978s
     1     4   92.80866    1   11   97.43097   89.37583  8.27% 290799 59974s
     3     6     cutoff    2        97.43097   89.37683  8.27% 185650 62887s
     7    10   91.06624    3    9   97.43097   89.44786  8.19% 131614 71302s
    13    14   91.12275    4    8   97.43097   91.06694  6.53% 125178 80969s
    17    14   95.72742    4    5   97.43097   91.06694  6.53% 141206 80970s
    23    22   94.41257    5    8   97.43097   91.12300  6.47% 127312 83036s
    37    28   94.42147    6    7   97.43097   92.25636  5.31% 102642 85004s
    59    28   95.44895    7    7   97.43097   92.83308  4.72% 83370 86485s
    87    26     cutoff    8        97.43097   92.84983  4.70% 70056 89399s
   115    26   94.84571    9    8   97.43097   92.85726  4.69% 62497 95545s
   141    15   94.93466   10    7   97.43097   94.21419  3.30% 58941 96701s
   167    10   95.20794   11    6   97.43097   94.27495  3.24% 54523 97441s
   182     4   97.13438   12    7   97.43097   95.21009  2.28% 53263 98163s

Cutting planes:
  Gomory: 2
  Implied bound: 2822
  MIR: 47762
  Relax-and-lift: 26

Explored 192 nodes (10819029 simplex iterations) in 98164.30 seconds (163232.24 work units)
Thread count was 36 (of 36 available processors)

Solution count 4: 97.431 102.142 102.873 119.576 

Optimal solution found (tolerance 1.00e-02)
Best objective 9.743097030052e+01, best bound 9.713440819059e+01, gap 0.3044%
Termination condition:  optimal
# ==========================================================
# = Solver Results                                         =
# ==========================================================
# ----------------------------------------------------------
#   Problem Information
# ----------------------------------------------------------
Problem: 
- Name: x1
  Lower bound: 97.1344081905858
  Upper bound: 97.43097030051959
  Number of objectives: 1
  Number of constraints: 3887523
  Number of variables: 2254155
  Number of binary variables: 39
  Number of integer variables: 39
  Number of continuous variables: 2254116
  Number of nonzeros: 10667124
  Sense: minimize
# ----------------------------------------------------------
#   Solver Information
# ----------------------------------------------------------
Solver: 
- Status: ok
  Return code: 0
  Message: Model was solved to optimality (subject to tolerances), and an optimal solution is available.
  Termination condition: optimal
  Termination message: Model was solved to optimality (subject to tolerances), and an optimal solution is available.
  Wall time: 98164.35693407059
  Error rc: 0
  Time: 98189.11924147606
# ----------------------------------------------------------
#   Solution Information
# ----------------------------------------------------------
Solution: 
- number of solutions: 0
  number of solutions displayed: 0
# ============================================================================= #
# ============================================================================= #
fixing: vNetworkInvest[2030,N_116,N_117,cac1]
fixing: vNetworkInvest[2030,N_108,N_110,cac1]
fixing: vNetworkInvest[2030,N_101,N_103,cac1]
fixing: vNetworkInvest[2030,N_114,N_116,cac1]
fixing: vNetworkInvest[2030,N_110,N_111,cac1]
fixing: vNetworkInvest[2030,N_118,N_121,cac2]
fixing: vNetworkInvest[2030,N_105,N_110,cac1]
fixing: vNetworkInvest[2030,N_112,N_113,cac1]
fixing: vNetworkInvest[2030,N_117,N_118,cac1]
fixing: vNetworkInvest[2030,N_115,N_121,cac1]
fixing: vNetworkInvest[2030,N_108,N_109,cac1]
fixing: vNetworkInvest[2030,N_119,N_120,cac2]
fixing: vNetworkInvest[2030,N_101,N_105,cac1]
fixing: vNetworkInvest[2030,N_110,N_112,cac1]
fixing: vNetworkInvest[2030,N_109,N_112,cac1]
fixing: vNetworkInvest[2030,N_112,N_123,cac1]
fixing: vNetworkInvest[2030,N_106,N_110,cac1]
fixing: vNetworkInvest[2030,N_103,N_124,cac1]
fixing: vNetworkInvest[2030,N_102,N_104,cac1]
fixing: vNetworkInvest[2030,N_111,N_113,cac1]
fixing: vNetworkInvest[2030,N_118,N_121,cac1]
fixing: vNetworkInvest[2030,N_120,N_123,cac2]
fixing: vNetworkInvest[2030,N_113,N_123,cac1]
fixing: vNetworkInvest[2030,N_116,N_119,cac1]
fixing: vNetworkInvest[2030,N_117,N_122,cac1]
fixing: vNetworkInvest[2030,N_115,N_124,cac1]
fixing: vNetworkInvest[2030,N_102,N_106,cac1]
fixing: vNetworkInvest[2030,N_101,N_102,cac1]
fixing: vNetworkInvest[2030,N_107,N_108,cac1]
fixing: vNetworkInvest[2030,N_119,N_120,cac1]
fixing: vNetworkInvest[2030,N_111,N_114,cac1]
fixing: vNetworkInvest[2030,N_104,N_109,cac1]
fixing: vNetworkInvest[2030,N_115,N_116,cac1]
fixing: vNetworkInvest[2030,N_109,N_111,cac1]
fixing: vNetworkInvest[2030,N_106,N_108,cac1]
fixing: vNetworkInvest[2030,N_115,N_121,cac2]
fixing: vNetworkInvest[2030,N_121,N_122,cac1]
fixing: vNetworkInvest[2030,N_103,N_109,cac1]
fixing: vNetworkInvest[2030,N_120,N_123,cac1]
Number of fixed variables:  39
# ============================================================================= #
# ============================================================================= #
WARNING: Implicitly replacing the Component attribute dual (type=<class
'pyomo.core.base.suffix.Suffix'>) on block 'openStarNet - Open Version of the
StartNetLite Model (Long Term Transmission Expansion Planning) - Version 1.0.0
- January 16, 2023' with a new Component (type=<class
'pyomo.core.base.suffix.Suffix'>). This is usually indicative of a modelling
error. To avoid this warning, use block.del_component() and
block.add_component().
WARNING: Implicitly replacing the Component attribute rc (type=<class
'pyomo.core.base.suffix.Suffix'>) on block 'openStarNet - Open Version of the
StartNetLite Model (Long Term Transmission Expansion Planning) - Version 1.0.0
- January 16, 2023' with a new Component (type=<class
'pyomo.core.base.suffix.Suffix'>). This is usually indicative of a modelling
error. To avoid this warning, use block.del_component() and
block.add_component().
# ==========================================================
# = Solver Results                                         =
# ==========================================================
# ----------------------------------------------------------
#   Problem Information
# ----------------------------------------------------------
Problem: 
- Name: x1
  Lower bound: 97.43097030052033
  Upper bound: 97.43097030052033
  Number of objectives: 1
  Number of constraints: 3887523
  Number of variables: 2254116
  Number of binary variables: 0
  Number of integer variables: 0
  Number of continuous variables: 2254116
  Number of nonzeros: 9304269
  Sense: minimize
# ----------------------------------------------------------
#   Solver Information
# ----------------------------------------------------------
Solver: 
- Status: ok
  Return code: 0
  Message: Model was solved to optimality (subject to tolerances), and an optimal solution is available.
  Termination condition: optimal
  Termination message: Model was solved to optimality (subject to tolerances), and an optimal solution is available.
  Wall time: 170.3843469619751
  Error rc: 0
  Time: 206.10803318023682
# ----------------------------------------------------------
#   Solution Information
# ----------------------------------------------------------
Solution: 
- number of solutions: 0
  number of solutions displayed: 0
Solving                               ...  98610 s
Objective function value                   97.43 M€
Objective function value                   97.43097030052033
Writing         cost summary results  ...  0 s
Writing           investment results  ...  0 s
Writing       energy balance results  ...  128 s
Writing    network operation results  ...  7 s
Writing generation operation results  ...  14 s
Writing        ESS operation results  ...  0 s
Writing             economic results  ...  1 s

 #### Academic research license - for non-commercial use only #### 

Elapsed time: 98951 seconds
